; benchmark generated from python API
(set-info :status unknown)
(declare-datatypes ((IntState 0)) (((Mk1 (val1 Int)) (Mk2 (val2 Int)))))
 (declare-fun c_main_~k~6 () Int)
(declare-fun c_main_~j~6 () Int)
(declare-fun c_main_~i~6 () Int)
(assert
 (let (($x134 (exists ((main_~i~6_st IntState) (val!76 Int) )(let ((?x56 (val2 main_~i~6_st)))
 (let (($x50 (<= ?x56 4)))
 (let (($x94 (and (<= c_main_~j~6 (+ (* 2 ?x56) 1)) $x50 (<= ?x56 c_main_~k~6))))
 (let (($x52 (not (= main_~i~6_st (Mk1 val!76)))))
 (and $x52 $x94))))))
 ))
 (let ((?x81 (* 2 c_main_~i~6)))
 (let (($x128 (<= c_main_~j~6 ?x81)))
 (let (($x16 (<= c_main_~i~6 4)))
 (let (($x95 (<= c_main_~j~6 (+ ?x81 1))))
 (let (($x97 (exists ((v_nnf_78 Int) )(let (($x73 (<= v_nnf_78 4)))
 (let (($x130 (<= c_main_~j~6 (+ (* 2 v_nnf_78) 1))))
 (and (<= (+ v_nnf_78 2) c_main_~k~6) $x130 $x73))))
 ))
 (and (and $x95 $x16 $x128 $x97) (not (and $x95 $x16 $x128 $x134))))))))))
(check-sat)
